benchmarks_CP/INST_49x49/50/inst49x49_50_58.dzn
S=7;
start=[|
3,	-1,	28,	20,	49,	1,	11,	-1,	25,	21,	-1,	-1,	6,	-1,	9,	-1,	22,	19,	14,	-1,	17,	-1,	36,	10,	-1,	-1,	-1,	-1,	27,	48,	13,	-1,	-1,	37,	-1,	-1,	-1,	34,	32,	-1,	47,	-1,	-1,	-1,	-1,	18,	46,	-1,	-1|
-1,	-1,	18,	25,	27,	24,	-1,	3,	16,	-1,	10,	-1,	-1,	22,	-1,	-1,	38,	-1,	48,	28,	26,	-1,	-1,	-1,	1,	29,	-1,	4,	-1,	-1,	-1,	-1,	6,	-1,	-1,	-1,	-1,	-1,	12,	36,	8,	-1,	21,	37,	-1,	-1,	-1,	34,	-1|
44,	-1,	-1,	-1,	16,	6,	47,	-1,	34,	31,	26,	-1,	-1,	-1,	36,	23,	-1,	49,	33,	-1,	8,	5,	-1,	-1,	-1,	-1,	-1,	-1,	-1,	1,	-1,	-1,	12,	21,	-1,	-1,	14,	3,	-1,	-1,	-1,	10,	-1,	-1,	13,	32,	35,	19,	-1|
40,	-1,	-1,	17,	41,	-1,	-1,	35,	-1,	-1,	-1,	-1,	-1,	-1,	30,	-1,	-1,	2,	-1,	-1,	34,	37,	15,	-1,	31,	-1,	12,	-1,	-1,	-1,	39,	36,	9,	-1,	-1,	-1,	23,	22,	33,	-1,	16,	-1,	49,	11,	3,	-1,	-1,	25,	-1|
45,	-1,	-1,	-1,	26,	29,	-1,	-1,	9,	-1,	-1,	-1,	-1,	24,	-1,	-1,	35,	-1,	-1,	39,	-1,	34,	48,	33,	-1,	18,	-1,	25,	-1,	3,	-1,	-1,	-1,	-1,	2,	-1,	42,	1,	31,	7,	-1,	-1,	30,	10,	41,	-1,	17,	-1,	5|
43,	-1,	-1,	-1,	-1,	-1,	-1,	-1,	41,	14,	-1,	45,	33,	36,	-1,	-1,	24,	-1,	42,	3,	11,	16,	26,	-1,	21,	23,	-1,	-1,	-1,	-1,	-1,	5,	-1,	-1,	25,	18,	-1,	-1,	-1,	29,	-1,	2,	-1,	1,	6,	20,	-1,	-1,	48|
-1,	-1,	-1,	-1,	-1,	37,	10,	1,	-1,	-1,	-1,	32,	49,	-1,	-1,	-1,	-1,	6,	-1,	-1,	-1,	3,	-1,	47,	14,	-1,	-1,	9,	-1,	-1,	-1,	7,	8,	41,	-1,	-1,	-1,	-1,	27,	-1,	-1,	48,	36,	16,	-1,	-1,	-1,	-1,	-1|
-1,	-1,	-1,	-1,	33,	10,	-1,	-1,	-1,	30,	-1,	-1,	-1,	-1,	4,	3,	28,	-1,	-1,	-1,	7,	-1,	1,	-1,	-1,	-1,	-1,	14,	-1,	19,	-1,	23,	-1,	-1,	-1,	32,	18,	-1,	-1,	8,	-1,	34,	42,	-1,	-1,	15,	-1,	-1,	9|
36,	-1,	-1,	-1,	-1,	-1,	29,	14,	48,	38,	21,	-1,	41,	-1,	-1,	-1,	47,	5,	1,	-1,	39,	-1,	-1,	-1,	-1,	-1,	25,	23,	35,	33,	-1,	-1,	-1,	-1,	-1,	12,	4,	9,	-1,	-1,	49,	46,	16,	45,	-1,	3,	37,	-1,	10|
27,	-1,	49,	-1,	-1,	3,	-1,	16,	-1,	19,	-1,	-1,	31,	32,	17,	44,	-1,	-1,	40,	-1,	29,	-1,	41,	-1,	22,	-1,	-1,	33,	-1,	24,	-1,	-1,	20,	-1,	12,	25,	-1,	23,	-1,	35,	-1,	-1,	8,	14,	1,	-1,	39,	-1,	30|
-1,	-1,	25,	15,	-1,	20,	19,	4,	29,	22,	17,	-1,	-1,	46,	-1,	27,	23,	-1,	9,	-1,	-1,	-1,	47,	-1,	8,	-1,	26,	44,	-1,	-1,	1,	-1,	-1,	39,	14,	-1,	16,	-1,	-1,	-1,	31,	21,	-1,	6,	12,	43,	-1,	32,	13|
16,	-1,	13,	23,	-1,	-1,	-1,	-1,	10,	44,	25,	-1,	-1,	-1,	-1,	19,	-1,	32,	31,	37,	2,	-1,	-1,	30,	17,	-1,	-1,	7,	48,	21,	-1,	-1,	-1,	46,	9,	-1,	38,	6,	-1,	39,	14,	-1,	-1,	-1,	-1,	49,	18,	33,	-1|
-1,	14,	2,	12,	22,	-1,	-1,	24,	23,	-1,	15,	-1,	-1,	34,	21,	48,	16,	46,	-1,	41,	20,	-1,	-1,	-1,	-1,	32,	-1,	39,	44,	-1,	-1,	40,	-1,	3,	-1,	-1,	-1,	13,	1,	-1,	-1,	-1,	-1,	31,	47,	19,	-1,	-1,	36|
31,	21,	-1,	11,	7,	9,	-1,	39,	12,	-1,	1,	-1,	-1,	45,	-1,	-1,	-1,	-1,	-1,	15,	-1,	27,	3,	19,	-1,	-1,	6,	-1,	-1,	-1,	-1,	34,	32,	-1,	10,	-1,	-1,	-1,	-1,	47,	-1,	17,	44,	48,	-1,	-1,	-1,	-1,	23|
49,	33,	-1,	-1,	-1,	11,	3,	38,	15,	25,	24,	26,	-1,	20,	40,	9,	-1,	-1,	23,	-1,	-1,	42,	-1,	-1,	36,	-1,	19,	-1,	21,	-1,	-1,	-1,	-1,	43,	-1,	2,	1,	47,	-1,	41,	-1,	-1,	35,	39,	30,	-1,	6,	13,	-1|
35,	-1,	-1,	24,	25,	-1,	1,	-1,	-1,	8,	28,	-1,	47,	33,	13,	-1,	-1,	14,	-1,	-1,	-1,	2,	21,	-1,	-1,	-1,	-1,	-1,	40,	9,	-1,	-1,	-1,	-1,	31,	-1,	15,	-1,	-1,	4,	30,	32,	7,	29,	23,	26,	-1,	-1,	-1|
12,	-1,	26,	-1,	-1,	46,	28,	-1,	6,	-1,	-1,	35,	1,	-1,	2,	43,	-1,	-1,	-1,	-1,	-1,	47,	-1,	8,	-1,	-1,	-1,	-1,	17,	39,	7,	4,	30,	20,	5,	42,	37,	19,	-1,	18,	-1,	-1,	24,	3,	-1,	-1,	22,	-1,	14|
-1,	47,	-1,	-1,	-1,	14,	13,	-1,	-1,	5,	-1,	17,	23,	-1,	-1,	-1,	20,	-1,	-1,	22,	15,	-1,	-1,	48,	45,	-1,	-1,	24,	12,	-1,	-1,	38,	-1,	10,	-1,	44,	-1,	8,	-1,	-1,	3,	35,	41,	18,	33,	-1,	32,	9,	-1|
37,	20,	-1,	27,	31,	-1,	-1,	-1,	39,	-1,	14,	13,	-1,	12,	-1,	8,	-1,	-1,	-1,	24,	41,	1,	-1,	-1,	-1,	49,	32,	-1,	22,	-1,	-1,	-1,	23,	-1,	-1,	38,	28,	26,	-1,	46,	-1,	-1,	-1,	36,	-1,	-1,	-1,	-1,	2|
22,	8,	-1,	-1,	-1,	-1,	-1,	21,	-1,	2,	-1,	-1,	46,	37,	-1,	-1,	3,	33,	-1,	-1,	47,	4,	-1,	-1,	-1,	26,	29,	18,	16,	44,	19,	-1,	13,	14,	24,	-1,	-1,	5,	23,	-1,	-1,	-1,	20,	38,	-1,	12,	27,	-1,	-1|
-1,	-1,	-1,	-1,	6,	44,	18,	49,	4,	9,	41,	-1,	-1,	19,	-1,	28,	30,	39,	17,	46,	-1,	-1,	-1,	-1,	16,	14,	-1,	-1,	36,	-1,	11,	26,	34,	2,	27,	-1,	33,	31,	22,	-1,	29,	24,	5,	43,	48,	40,	8,	47,	15|
47,	-1,	-1,	-1,	15,	-1,	-1,	-1,	20,	-1,	9,	-1,	18,	40,	-1,	41,	-1,	-1,	-1,	8,	43,	-1,	-1,	-1,	37,	-1,	16,	-1,	32,	2,	-1,	45,	10,	-1,	-1,	23,	-1,	4,	29,	49,	35,	-1,	34,	-1,	21,	-1,	38,	-1,	27|
-1,	34,	32,	40,	-1,	35,	31,	15,	-1,	-1,	8,	-1,	39,	-1,	-1,	-1,	11,	44,	-1,	-1,	42,	38,	14,	24,	47,	-1,	27,	3,	-1,	13,	9,	30,	-1,	-1,	43,	1,	22,	-1,	25,	6,	10,	26,	-1,	12,	-1,	23,	33,	46,	29|
-1,	3,	6,	-1,	-1,	38,	25,	5,	-1,	-1,	31,	-1,	32,	14,	-1,	15,	26,	23,	28,	-1,	-1,	11,	40,	-1,	30,	-1,	44,	36,	46,	-1,	37,	29,	33,	-1,	19,	17,	-1,	2,	-1,	45,	-1,	9,	-1,	20,	16,	22,	1,	7,	43|
-1,	26,	33,	5,	48,	-1,	-1,	19,	35,	17,	-1,	-1,	24,	-1,	20,	45,	27,	37,	-1,	-1,	-1,	41,	10,	-1,	-1,	-1,	-1,	13,	-1,	-1,	-1,	42,	-1,	-1,	21,	15,	8,	38,	-1,	-1,	7,	39,	3,	-1,	-1,	31,	-1,	18,	44|
21,	43,	-1,	-1,	-1,	-1,	27,	-1,	37,	6,	-1,	-1,	34,	-1,	7,	39,	33,	13,	46,	40,	1,	9,	-1,	32,	-1,	2,	17,	-1,	-1,	-1,	36,	-1,	38,	22,	-1,	-1,	30,	-1,	-1,	-1,	-1,	-1,	-1,	8,	-1,	-1,	-1,	-1,	-1|
23,	4,	-1,	18,	-1,	-1,	-1,	-1,	-1,	-1,	46,	38,	-1,	48,	-1,	24,	25,	47,	-1,	-1,	31,	49,	12,	45,	29,	-1,	43,	-1,	-1,	-1,	-1,	20,	11,	-1,	-1,	-1,	-1,	27,	-1,	13,	32,	28,	19,	17,	15,	-1,	40,	41,	6|
-1,	29,	7,	1,	-1,	45,	-1,	-1,	28,	-1,	27,	16,	-1,	43,	-1,	12,	-1,	-1,	19,	49,	32,	-1,	8,	-1,	-1,	-1,	23,	6,	34,	-1,	-1,	39,	4,	-1,	-1,	31,	5,	46,	-1,	-1,	-1,	-1,	9,	-1,	2,	37,	-1,	24,	-1|
39,	-1,	-1,	-1,	-1,	25,	-1,	-1,	24,	42,	-1,	7,	-1,	2,	49,	4,	-1,	-1,	27,	-1,	-1,	22,	-1,	-1,	-1,	-1,	-1,	38,	-1,	23,	-1,	-1,	1,	31,	40,	41,	-1,	33,	6,	16,	36,	18,	-1,	-1,	-1,	-1,	30,	37,	28|
-1,	-1,	16,	10,	32,	-1,	-1,	-1,	5,	-1,	3,	-1,	-1,	-1,	-1,	22,	-1,	31,	-1,	29,	-1,	45,	-1,	9,	-1,	6,	15,	28,	33,	35,	-1,	49,	44,	-1,	11,	14,	-1,	7,	-1,	24,	-1,	-1,	-1,	27,	-1,	46,	20,	-1,	-1|
-1,	-1,	14,	33,	-1,	47,	2,	-1,	27,	26,	23,	-1,	-1,	-1,	-1,	46,	19,	-1,	-1,	32,	37,	30,	7,	-1,	3,	-1,	10,	-1,	-1,	4,	42,	9,	48,	28,	18,	-1,	-1,	49,	-1,	31,	-1,	29,	22,	-1,	35,	16,	24,	43,	-1|
20,	13,	-1,	35,	3,	-1,	-1,	-1,	14,	4,	18,	-1,	-1,	6,	-1,	25,	-1,	43,	39,	17,	44,	46,	16,	-1,	-1,	-1,	-1,	-1,	29,	38,	26,	-1,	-1,	-1,	32,	10,	-1,	-1,	30,	-1,	23,	27,	33,	5,	-1,	48,	31,	1,	-1|
-1,	28,	-1,	41,	-1,	7,	24,	33,	13,	43,	-1,	-1,	-1,	49,	5,	-1,	-1,	-1,	18,	-1,	48,	-1,	35,	14,	44,	-1,	37,	-1,	2,	-1,	30,	27,	21,	-1,	-1,	-1,	25,	-1,	26,	-1,	9,	-1,	-1,	-1,	-1,	11,	-1,	36,	45|
-1,	44,	-1,	-1,	1,	-1,	-1,	41,	-1,	-1,	-1,	11,	-1,	-1,	-1,	26,	-1,	7,	2,	33,	-1,	36,	43,	-1,	23,	-1,	18,	32,	24,	-1,	20,	13,	-1,	-1,	15,	-1,	-1,	48,	-1,	-1,	-1,	47,	29,	-1,	-1,	6,	4,	21,	34|
29,	-1,	-1,	-1,	-1,	23,	40,	-1,	-1,	-1,	35,	-1,	-1,	16,	-1,	-1,	-1,	-1,	-1,	9,	6,	26,	-1,	-1,	-1,	27,	31,	-1,	-1,	25,	41,	-1,	-1,	34,	39,	22,	-1,	28,	5,	-1,	37,	42,	-1,	-1,	14,	-1,	-1,	-1,	7|
-1,	-1,	20,	42,	4,	30,	12,	-1,	-1,	35,	19,	-1,	5,	7,	-1,	-1,	9,	17,	49,	25,	3,	-1,	-1,	-1,	-1,	-1,	-1,	8,	39,	-1,	-1,	-1,	-1,	-1,	37,	-1,	2,	40,	-1,	-1,	-1,	-1,	6,	-1,	-1,	38,	29,	16,	-1|
9,	-1,	3,	7,	37,	-1,	15,	23,	-1,	12,	-1,	41,	38,	-1,	-1,	-1,	48,	-1,	34,	36,	33,	40,	27,	17,	43,	-1,	-1,	-1,	-1,	5,	-1,	24,	-1,	-1,	20,	4,	-1,	-1,	49,	14,	-1,	16,	18,	-1,	39,	-1,	2,	-1,	-1|
25,	-1,	-1,	-1,	-1,	-1,	-1,	-1,	8,	24,	-1,	-1,	2,	-1,	19,	10,	13,	29,	-1,	18,	-1,	14,	39,	21,	34,	9,	4,	-1,	23,	7,	31,	-1,	3,	-1,	-1,	36,	32,	-1,	-1,	-1,	1,	-1,	43,	-1,	-1,	-1,	-1,	-1,	-1|
1,	-1,	-1,	14,	24,	31,	-1,	-1,	-1,	34,	33,	21,	42,	39,	-1,	2,	-1,	-1,	-1,	4,	22,	6,	32,	-1,	26,	-1,	-1,	30,	13,	40,	-1,	35,	-1,	-1,	38,	-1,	-1,	-1,	-1,	20,	-1,	-1,	28,	-1,	27,	-1,	11,	-1,	-1|
-1,	5,	-1,	-1,	2,	-1,	-1,	-1,	-1,	-1,	40,	6,	-1,	-1,	37,	-1,	7,	16,	20,	-1,	-1,	31,	-1,	-1,	-1,	-1,	-1,	-1,	-1,	34,	-1,	21,	28,	-1,	-1,	30,	-1,	39,	24,	-1,	-1,	-1,	-1,	-1,	-1,	-1,	44,	10,	-1|
-1,	41,	22,	-1,	34,	-1,	-1,	27,	30,	18,	4,	-1,	-1,	17,	42,	-1,	-1,	1,	-1,	-1,	24,	7,	-1,	-1,	10,	-1,	28,	-1,	26,	16,	29,	2,	19,	-1,	-1,	-1,	-1,	35,	13,	-1,	-1,	31,	-1,	21,	45,	36,	12,	48,	-1|
18,	-1,	-1,	-1,	-1,	-1,	23,	48,	32,	-1,	-1,	29,	11,	-1,	31,	-1,	-1,	35,	6,	43,	-1,	25,	22,	-1,	-1,	24,	-1,	-1,	-1,	-1,	49,	-1,	-1,	4,	-1,	46,	-1,	12,	38,	34,	27,	7,	-1,	26,	-1,	-1,	5,	8,	41|
48,	42,	-1,	-1,	-1,	17,	16,	2,	-1,	-1,	44,	-1,	4,	-1,	3,	13,	-1,	-1,	-1,	-1,	-1,	23,	-1,	-1,	-1,	-1,	41,	-1,	9,	43,	12,	-1,	-1,	32,	-1,	33,	31,	36,	28,	-1,	-1,	-1,	-1,	15,	38,	-1,	-1,	6,	-1|
15,	31,	1,	-1,	-1,	19,	4,	12,	-1,	23,	20,	-1,	48,	-1,	-1,	-1,	-1,	9,	44,	-1,	-1,	-1,	38,	29,	-1,	10,	-1,	2,	-1,	-1,	21,	-1,	-1,	-1,	36,	16,	41,	-1,	-1,	-1,	39,	-1,	27,	-1,	25,	30,	45,	-1,	-1|
-1,	36,	-1,	-1,	-1,	-1,	-1,	-1,	-1,	-1,	45,	28,	21,	-1,	39,	-1,	-1,	-1,	38,	-1,	-1,	-1,	6,	-1,	7,	15,	34,	-1,	-1,	-1,	-1,	-1,	-1,	48,	-1,	-1,	12,	-1,	-1,	19,	13,	-1,	46,	32,	31,	14,	-1,	20,	11|
46,	-1,	39,	2,	-1,	21,	-1,	-1,	-1,	32,	42,	-1,	43,	-1,	41,	-1,	37,	-1,	7,	6,	-1,	48,	9,	40,	11,	-1,	-1,	45,	4,	18,	38,	-1,	31,	-1,	-1,	35,	26,	-1,	-1,	-1,	-1,	8,	-1,	-1,	-1,	-1,	16,	-1,	22|
26,	-1,	44,	34,	-1,	5,	6,	-1,	19,	16,	-1,	-1,	15,	-1,	24,	33,	-1,	-1,	35,	23,	10,	-1,	-1,	46,	27,	-1,	30,	-1,	-1,	-1,	-1,	17,	-1,	-1,	-1,	7,	-1,	18,	40,	-1,	38,	4,	-1,	42,	37,	8,	-1,	-1,	21|
-1,	22,	-1,	3,	-1,	43,	38,	36,	-1,	-1,	-1,	18,	-1,	25,	11,	32,	-1,	-1,	-1,	-1,	-1,	-1,	-1,	26,	49,	47,	24,	12,	42,	-1,	-1,	-1,	39,	15,	-1,	29,	-1,	10,	46,	37,	45,	30,	2,	44,	5,	-1,	9,	-1,	17|
10,	49,	-1,	37,	9,	-1,	-1,	-1,	38,	-1,	-1,	31,	-1,	11,	15,	42,	-1,	8,	-1,	-1,	-1,	28,	13,	-1,	-1,	-1,	-1,	-1,	-1,	-1,	-1,	46,	24,	40,	26,	6,	27,	-1,	2,	17,	5,	-1,	23,	-1,	43,	29,	-1,	-1,	-1|];
