sudoku-ls/benchmarks_LEQ/INST_49x49/50/inst49x49_50_58.txt
7
1
-1	35	28	-1	49	1	11	43	-1	21	-1	30	-1	42	-1	16	22	19	14	-1	-1	-1	36	10	2	45	-1	-1	-1	48	-1	33	40	37	-1	-1	-1	34	32	-1	47	-1	31	23	-1	-1	46	26	-1
-1	-1	-1	-1	-1	24	33	3	16	-1	-1	-1	-1	-1	32	-1	38	41	-1	-1	26	44	-1	20	1	29	-1	-1	-1	31	35	43	6	23	49	-1	-1	30	12	-1	-1	-1	-1	-1	7	-1	-1	34	-1
-1	2	-1	-1	16	6	47	7	-1	31	26	-1	27	-1	-1	-1	-1	49	33	-1	-1	5	24	43	40	30	-1	-1	-1	-1	28	11	-1	21	-1	37	14	3	-1	25	-1	10	45	9	13	32	35	19	-1
-1	-1	5	17	-1	42	7	35	-1	20	-1	44	28	47	-1	1	-1	-1	4	10	34	37	-1	-1	-1	-1	-1	27	19	32	-1	-1	9	-1	45	43	23	-1	-1	-1	-1	-1	-1	11	3	24	14	-1	-1
-1	-1	-1	38	26	29	-1	11	9	15	12	23	8	24	-1	-1	-1	-1	37	-1	-1	34	48	33	32	18	22	25	20	3	46	-1	-1	44	-1	-1	-1	1	31	7	6	49	-1	10	-1	-1	-1	-1	5
43	-1	-1	-1	39	13	-1	46	-1	-1	-1	-1	33	36	-1	-1	24	-1	-1	3	11	-1	-1	28	21	23	-1	19	30	-1	34	5	15	17	-1	-1	9	44	-1	-1	4	-1	40	-1	6	-1	47	-1	48
-1	23	4	-1	12	-1	10	1	17	39	-1	-1	49	29	-1	18	45	-1	15	31	-1	-1	11	47	14	13	-1	-1	-1	-1	-1	-1	-1	-1	42	19	-1	-1	-1	-1	40	48	36	16	-1	-1	43	-1	33
-1	-1	-1	45	33	10	-1	6	2	-1	-1	40	20	35	4	3	-1	-1	-1	13	-1	-1	1	-1	-1	-1	-1	14	41	19	-1	23	-1	-1	-1	32	18	-1	-1	8	-1	34	42	-1	24	15	21	-1	-1
36	24	17	-1	40	32	-1	14	48	38	-1	-1	-1	18	-1	6	-1	-1	1	30	39	20	28	-1	15	43	25	-1	35	33	27	-1	7	-1	-1	12	4	-1	19	-1	-1	46	16	-1	26	-1	-1	2	10
-1	-1	49	47	46	-1	-1	16	-1	-1	-1	-1	31	-1	-1	-1	10	-1	-1	-1	29	-1	-1	2	22	-1	21	-1	45	24	-1	18	20	38	12	-1	7	23	-1	35	-1	15	8	-1	-1	34	39	5	30
-1	-1	25	15	-1	20	-1	-1	-1	-1	-1	-1	-1	-1	33	27	23	24	9	42	-1	35	-1	-1	-1	-1	-1	44	-1	-1	1	37	2	-1	14	48	-1	-1	3	10	31	-1	-1	-1	12	43	-1	-1	13
-1	-1	-1	-1	-1	-1	-1	47	10	-1	25	27	-1	3	45	-1	12	32	31	-1	2	24	-1	-1	-1	42	-1	-1	48	21	-1	-1	29	-1	9	20	38	6	11	39	14	-1	4	-1	-1	49	18	-1	40
-1	14	2	-1	22	-1	35	-1	23	-1	15	-1	37	34	-1	-1	-1	46	43	-1	20	-1	18	-1	9	-1	-1	39	44	6	25	40	-1	-1	-1	-1	29	13	1	30	26	-1	17	-1	-1	-1	7	-1	-1
31	-1	-1	-1	7	-1	26	-1	12	-1	1	-1	-1	-1	38	35	49	18	-1	-1	14	-1	3	19	-1	4	6	16	-1	-1	22	-1	-1	30	10	-1	-1	-1	37	-1	-1	17	44	48	-1	25	-1	29	-1
49	33	34	4	5	-1	-1	38	-1	25	-1	-1	-1	20	40	9	32	27	23	-1	18	-1	-1	22	-1	28	19	-1	-1	-1	8	48	-1	43	46	2	-1	47	14	41	-1	-1	-1	-1	-1	45	-1	13	-1
35	-1	-1	-1	25	36	-1	-1	44	8	28	-1	47	-1	-1	-1	-1	-1	-1	-1	-1	-1	21	27	-1	3	11	-1	-1	9	-1	-1	18	-1	31	-1	15	16	20	-1	-1	-1	7	-1	23	26	34	-1	46
12	-1	26	16	-1	46	-1	-1	6	29	-1	35	1	27	2	-1	44	-1	-1	48	-1	-1	-1	8	-1	-1	-1	-1	-1	-1	-1	4	-1	-1	-1	-1	37	-1	-1	-1	11	-1	-1	-1	49	-1	-1	-1	14
2	-1	19	-1	-1	14	13	31	11	-1	-1	17	23	-1	-1	-1	-1	42	26	22	-1	43	-1	48	-1	39	-1	-1	-1	-1	-1	-1	25	-1	-1	-1	34	-1	-1	-1	-1	-1	41	18	33	4	32	-1	37
37	20	-1	-1	-1	48	-1	18	39	-1	14	13	-1	12	29	-1	-1	-1	45	-1	41	1	-1	-1	5	-1	32	17	-1	-1	-1	-1	23	35	3	-1	28	-1	-1	-1	43	-1	-1	36	-1	21	-1	-1	-1
-1	8	-1	-1	-1	15	-1	21	-1	2	-1	43	-1	-1	-1	-1	-1	33	-1	-1	-1	4	-1	-1	-1	-1	29	18	-1	-1	19	-1	-1	-1	-1	-1	-1	-1	-1	-1	48	25	-1	38	-1	-1	27	-1	-1
-1	7	-1	-1	-1	-1	-1	-1	-1	-1	41	-1	-1	19	-1	-1	-1	-1	-1	46	-1	12	25	-1	16	14	-1	-1	36	42	11	26	-1	-1	-1	13	33	31	-1	21	-1	-1	-1	-1	48	-1	8	-1	15
47	39	46	-1	-1	12	44	-1	-1	-1	9	1	-1	40	-1	-1	-1	30	3	-1	-1	-1	-1	-1	-1	-1	-1	26	-1	-1	48	45	-1	24	7	-1	36	4	-1	-1	-1	-1	34	-1	-1	5	-1	-1	-1
19	34	32	40	17	35	-1	-1	-1	7	-1	-1	39	41	-1	-1	11	44	21	16	-1	-1	-1	24	47	-1	27	3	28	-1	9	-1	-1	-1	43	-1	-1	-1	25	6	10	26	48	12	4	23	33	-1	-1
8	3	-1	-1	-1	38	25	5	21	-1	-1	-1	32	14	35	-1	26	23	-1	34	-1	-1	-1	-1	30	48	-1	-1	-1	-1	-1	29	33	18	19	17	24	-1	41	-1	12	9	47	-1	16	22	-1	7	43
11	26	-1	-1	48	16	14	-1	-1	17	22	36	24	-1	20	45	27	37	-1	-1	-1	-1	-1	1	28	-1	46	13	-1	-1	23	42	-1	-1	21	-1	8	-1	-1	-1	-1	39	3	30	-1	-1	49	18	44
21	43	-1	-1	28	-1	-1	-1	-1	-1	-1	12	-1	-1	-1	-1	33	13	-1	-1	1	9	19	32	-1	-1	17	-1	31	15	36	-1	-1	22	35	-1	30	14	16	48	18	-1	25	-1	11	-1	-1	45	-1
-1	-1	37	-1	36	-1	-1	-1	26	33	46	38	-1	48	-1	24	-1	47	-1	-1	31	-1	-1	-1	-1	-1	-1	35	-1	-1	44	20	11	1	16	-1	3	-1	-1	13	-1	-1	19	-1	15	39	40	41	6
-1	29	7	-1	-1	-1	20	-1	28	-1	27	16	-1	43	48	12	14	-1	19	-1	32	21	8	15	18	22	-1	-1	34	17	40	39	-1	26	41	31	5	-1	-1	33	-1	-1	-1	-1	2	-1	-1	24	-1
39	-1	-1	-1	-1	25	-1	9	-1	-1	-1	-1	29	2	49	-1	-1	-1	-1	-1	-1	22	-1	-1	19	-1	-1	-1	-1	-1	17	-1	1	-1	40	41	-1	33	6	-1	-1	18	15	-1	8	-1	-1	-1	-1
17	-1	-1	-1	-1	8	37	-1	5	48	3	-1	-1	1	-1	22	-1	31	-1	-1	-1	45	-1	-1	-1	6	-1	-1	33	-1	47	-1	-1	36	11	-1	-1	7	-1	24	-1	-1	26	-1	-1	-1	20	39	38
-1	-1	14	-1	38	-1	2	-1	-1	26	23	39	17	21	12	-1	-1	36	-1	-1	-1	-1	-1	13	-1	-1	10	-1	-1	-1	42	-1	48	-1	-1	-1	44	-1	-1	31	-1	-1	-1	-1	-1	-1	-1	43	25
-1	13	11	35	-1	22	34	8	-1	-1	-1	-1	36	-1	28	25	41	43	-1	-1	44	-1	16	-1	-1	-1	47	-1	29	38	-1	12	-1	-1	32	10	-1	-1	-1	2	-1	-1	-1	5	-1	48	-1	1	49
-1	28	31	41	19	-1	24	-1	-1	-1	38	10	-1	49	5	20	-1	3	18	-1	-1	39	-1	14	-1	8	-1	-1	2	46	30	-1	21	-1	-1	-1	25	17	-1	12	9	1	-1	40	-1	11	-1	36	45
-1	44	27	-1	1	49	-1	-1	31	45	-1	-1	-1	28	14	26	40	7	-1	-1	-1	36	43	-1	-1	17	18	32	-1	37	-1	13	-1	8	-1	3	35	48	-1	38	-1	47	-1	-1	10	6	-1	-1	-1
-1	-1	-1	-1	21	-1	-1	20	-1	-1	-1	15	-1	16	-1	-1	-1	-1	-1	-1	-1	-1	-1	4	-1	-1	31	48	10	-1	41	19	43	-1	39	-1	-1	28	-1	-1	-1	42	12	-1	-1	17	-1	3	7
13	-1	-1	-1	-1	-1	12	-1	43	35	-1	14	-1	7	47	11	-1	17	49	25	-1	-1	-1	18	48	46	33	-1	39	-1	32	-1	36	27	-1	26	-1	-1	-1	-1	-1	23	6	-1	-1	-1	29	-1	-1
-1	11	3	7	37	28	15	-1	1	12	47	-1	-1	31	-1	21	-1	26	34	36	-1	-1	27	17	43	19	13	42	8	5	-1	24	-1	45	-1	4	6	-1	49	14	25	-1	18	22	39	35	-1	-1	32
25	38	-1	6	35	-1	17	-1	-1	-1	-1	-1	-1	44	19	10	13	-1	-1	18	27	14	39	-1	-1	9	-1	47	23	7	31	22	-1	-1	30	36	-1	11	-1	28	1	5	43	49	40	-1	-1	-1	20
1	48	-1	14	-1	-1	-1	-1	-1	34	-1	-1	-1	39	46	2	-1	-1	-1	-1	22	-1	32	44	-1	16	-1	30	13	40	43	-1	-1	-1	38	-1	10	41	-1	-1	19	37	28	25	27	-1	-1	-1	47
32	-1	-1	43	-1	-1	-1	-1	-1	36	40	6	9	-1	37	14	-1	-1	-1	45	23	-1	29	41	35	12	38	-1	-1	-1	18	21	28	-1	-1	30	17	-1	-1	42	-1	-1	-1	4	-1	13	44	10	-1
33	-1	22	-1	-1	-1	49	-1	-1	18	4	20	25	17	42	40	8	-1	32	-1	-1	7	23	-1	-1	5	-1	11	-1	-1	-1	2	19	6	44	-1	-1	-1	-1	43	15	31	-1	-1	45	36	-1	-1	-1
18	16	-1	-1	-1	-1	23	48	-1	3	13	29	-1	10	-1	-1	39	35	6	43	28	-1	22	36	20	24	2	1	15	14	-1	-1	42	4	-1	46	45	-1	-1	-1	27	7	-1	-1	-1	-1	5	-1	41
-1	-1	40	8	-1	-1	-1	-1	7	1	-1	34	4	-1	3	13	46	20	-1	-1	49	23	37	-1	39	-1	41	-1	-1	43	-1	25	-1	-1	29	33	31	-1	-1	-1	24	14	-1	-1	38	-1	19	6	-1
15	31	1	28	-1	-1	-1	-1	46	23	20	-1	-1	-1	26	-1	18	9	44	14	5	-1	38	29	-1	-1	8	2	-1	49	21	6	35	-1	-1	16	41	32	47	-1	-1	43	-1	-1	-1	30	-1	40	24
24	36	-1	29	-1	33	-1	-1	-1	-1	-1	-1	-1	8	-1	-1	2	-1	38	-1	25	-1	-1	-1	7	15	-1	43	-1	30	-1	44	-1	-1	23	-1	12	-1	9	-1	13	22	46	-1	-1	-1	26	-1	-1
-1	27	-1	2	-1	-1	-1	-1	3	-1	42	24	-1	5	41	29	37	-1	-1	-1	-1	-1	9	40	-1	44	-1	-1	-1	18	38	-1	31	19	-1	35	26	-1	15	23	-1	-1	13	-1	-1	1	16	-1	22
26	-1	44	34	14	5	-1	29	19	16	-1	-1	-1	-1	-1	33	-1	-1	-1	-1	-1	32	-1	-1	-1	-1	30	-1	11	45	-1	17	41	13	28	-1	48	18	40	-1	-1	-1	-1	-1	-1	8	3	12	-1
7	-1	-1	3	-1	43	38	-1	-1	27	6	18	-1	25	11	32	31	48	16	-1	40	-1	4	26	-1	47	-1	-1	-1	-1	-1	8	-1	-1	34	29	-1	10	-1	-1	-1	30	-1	44	5	-1	9	-1	17
-1	49	-1	37	9	-1	32	30	-1	-1	39	31	14	-1	15	42	36	8	-1	-1	45	-1	-1	-1	25	-1	1	21	7	22	3	-1	24	40	-1	-1	-1	-1	2	17	5	44	-1	34	43	29	-1	35	4
49 
31 26 47 40
4 18 38 13
40 42 29 29
13 6 29 16
14 36 20 38
49 36 22 15
29 12 25 41
27 30 12 5
7 28 17 27
36 2 44 26
31 19 14 4
43 31 49 3
20 33 1 31
6 10 23 23
15 9 48 34
6 22 19 13
8 35 20 48
27 4 39 39
5 2 31 17
29 23 37 35
9 11 13 15
3 35 11 10
29 30 47 20
18 28 7 31
42 22 35 30
20 26 19 38
5 46 21 35
13 1 27 42
6 40 26 11
17 33 30 21
9 32 39 6
7 12 27 41
34 20 4 39
41 5 3 9
31 45 25 9
2 40 39 7
42 43 38 8
21 1 25 38
40 38 15 44
30 42 26 20
3 41 5 45
30 17 48 29
46 13 29 5
8 41 35 13
6 12 17 39
29 7 18 23
13 45 11 23
33 21 44 13
47 11 30 32
